0 3192
2 3118
3 3094
4 3081
5 3062
7 3058
9 3029
12 3009
13 2969
20 2953
27 2889
63 2866
192 2844
218 2840
422 2802
581 2793
764 2789
778 2772
809 2765
1425 2759
1447 2756
1460 2751
1735 2745
2339 2744
2437 2742
2492 2724
